20	5
0	1	1
1	2	16	5
2	1	8
3	1	7
4	3	3	18	15
5	1	9
6	1	13
7	1	11
8	1	17
9	1	10
10	0
11	2	19	6
12	1	2
13	1	14
14	1	21
15	1	21
16	1	21
17	1	21
18	1	21
19	1	21
20	1	21
21	0
0	0	0	0	0	0	0
1	4	1	0	2	0	0
2	1	2	0	0	1	0
3	7	0	4	0	2	0
4	10	3	0	4	0	5
5	6	0	3	0	0	0
6	4	3	3	0	2	0
7	8	1	0	0	0	0
8	7	5	0	5	0	2
9	6	5	4	0	0	0
10	8	5	0	3	0	0
11	9	2	2	4	3	0
12	2	3	1	5	1	2
13	1	4	0	0	0	0
14	5	4	3	2	0	0
15	8	0	2	4	0	3
16	9	0	1	0	1	0
17	2	2	0	0	3	0
18	3	2	1	0	0	2
19	3	2	4	2	5	1
20	2	0	2	0	0	0
21	0	0	0	0	0	0
5	5	5	5	5
